1 478,4 -49,7
2 28,3 -194
3 358 -52,6
4 -154,9 -110,9
5 113,2 -30,6
6 565,8 250,8
7 562,3 176,6
8 531,5 -68,2
9 494,8 -6,5
10 -83,8 9,9
11 351,8 65,6
12 403,9 92,3
13 275,6 72,4
14 266,2 8,5
15 439,7 73,3
16 415,7 -128,1
17 566,1 323,4
18 551,2 164
19 578,2 277,3
20 395 161,1
21 253,3 141,9
22 415,1 -84
23 324,9 23,2
24 -31,7 85,9
25 235,7 37,2
26 -127,5 -94,4
27 560,5 286,9
28 559,1 203,1
29 122,7 -119,4
30 540,2 255,6
31 559,5 85,1
32 129,5 135,5
33 447,6 122,3
34 265,8 -75,2
35 -192,7 26,6
36 529,8 182,9
37 581,2 264,5
38 544,2 29,4
39 153,4 87,9
40 432,1 18,5
41 303,5 -181
42 -3,4 -38,1
43 533 294,9
44 555,9 128,9
45 -194 72,6
46 485,7 104,3
47 323,5 130,8
48 107,3 -0,8
